Maximize
F - f1 - f2

Subject to
F - 6y11 - 2y19 - 4y69 - 8y71 - 6y83 - 2y152 - 0y153 - 2y154 - 4y159 - 6y51 - 4y48 - 2y163 - 4y84 - 6y182 - 8y57 - 8y36 - 4y17 - 2y47 - 2y103 - 4y66 - 6y64 - 4y148 - 6y22 = 0
f1 - 0.005939s11 - 0.005939s19 - 0.005939s69 - 0.005939s71 - 0.005939s83 - 0.005939s152 - 0.005939s153 - 0.005939s154 - 0.005939s159 - 0.005939s51 - 0.005939s48 - 0.005939s163 - 0.005939s84 - 0.005939s182 - 0.005939s57 - 0.005939s36 - 0.005939s17 - 0.005939s47 - 0.005939s103 - 0.005939s66 - 0.005939s64 - 0.005939s148 - 0.005939s22  = 0
f2 - 3.12y11 - 2.73y19 - 2.45y69 - 2.83y71 - 3.18y83 - 2.68y152 - 1.97y153 - 2.31y154 - 2.18y159 - 2.20y51 - 2.41y48 - 2.36y163 - 1.09y84 - 2.31y182 - 1.97y57 - 1.07y36 - 0.82y17 - 1.47y47 - 0.95y103 - 0.54y66 - 0.49y64 - 0.59y148 - 0.14y22 = 0

x167x11x1 + x167x71x1 + x167x153x1 + x167x159x1 + x167x51x1 + x167x163x1 + x167x36x1 + x167x17x1 + x167x47x1 + x167x103x1 + x167x66x1 
<= 1
x135x163x1 + x135x36x1 + x135x17x1 + x135x47x1 + x135x103x1 + x135x66x1 
<= 1
x145x163x1 + x145x36x1 + x145x17x1 + x145x47x1 + x145x103x1 + x145x66x1 
<= 1
x153x153x1 + x153x163x1 + x153x36x1 + x153x17x1 + x153x47x1 + x153x103x1 + x153x66x1 
<= 2
x188x11x1 + x188x71x1 + x188x153x1 + x188x159x1 + x188x51x1 + x188x163x1 + x188x36x1 + x188x17x1 + x188x47x1 + x188x103x1 + x188x66x1 
<= 1

x162x19x2 + x162x69x2 + x162x83x2 + x162x152x2 + x162x154x2 + x162x159x2 + x162x48x2 + x162x84x2 + x162x182x2 + x162x57x2 + x162x36x2 + x162x17x2 + x162x103x2 + x162x64x2 + x162x148x2 + x162x22x2 
<= 1
x135x84x2 + x135x182x2 + x135x57x2 + x135x36x2 + x135x17x2 + x135x103x2 + x135x64x2 + x135x148x2 + x135x22x2 
<= 1
x116x84x2 + x116x57x2 + x116x36x2 + x116x17x2 + x116x103x2 + x116x64x2 + x116x148x2 + x116x22x2 
<= 1
x186x19x2 + x186x69x2 + x186x83x2 + x186x152x2 + x186x154x2 + x186x159x2 + x186x48x2 + x186x84x2 + x186x182x2 + x186x57x2 + x186x36x2 + x186x17x2 + x186x103x2 + x186x64x2 + x186x148x2 + x186x22x2 
<= 1
x43x19x2 + x43x69x2 + x43x83x2 + x43x152x2 + x43x154x2 + x43x159x2 + x43x48x2 + x43x84x2 + x43x182x2 + x43x57x2 + x43x36x2 + x43x17x2 + x43x103x2 + x43x64x2 + x43x148x2 + x43x22x2 
<= 2
x162x11x3 + x162x69x3 + x162x83x3 + x162x152x3 + x162x154x3 + x162x48x3 + x162x47x3 + x162x64x3 + x162x22x3 
<= 1
x145x47x3 + x145x64x3 + x145x22x3 
<= 1
x58x47x3 + x58x64x3 + x58x22x3 
<= 2
x116x47x3 + x116x64x3 + x116x22x3 
<= 1
x188x11x3 + x188x69x3 + x188x83x3 + x188x152x3 + x188x154x3 + x188x48x3 + x188x47x3 + x188x64x3 + x188x22x3 
<= 1

x167x11x1 + x188x11x1 
- x11x0x1
- x11x163x1 - x11x36x1 - x11x17x1 - x11x47x1 - x11x103x1 - x11x66x1 
= 0

x162x11x3 + x188x11x3 
- x11x0x3
- x11x48x3 - x11x47x3 - x11x64x3 - x11x22x3 
= 0


x162x19x2 + x186x19x2 + x43x19x2 
- x19x0x2
- x19x84x2 - x19x182x2 - x19x57x2 - x19x36x2 - x19x17x2 - x19x103x2 - x19x64x2 - x19x148x2 - x19x22x2 
= 0



x162x69x2 + x186x69x2 + x43x69x2 
- x69x0x2
- x69x48x2 - x69x84x2 - x69x182x2 - x69x57x2 - x69x36x2 - x69x17x2 - x69x103x2 - x69x64x2 - x69x148x2 - x69x22x2 
= 0
x162x69x3 + x188x69x3 
- x69x0x3
- x69x48x3 - x69x47x3 - x69x64x3 - x69x22x3 
= 0

x167x71x1 + x188x71x1 
- x71x0x1
- x71x163x1 - x71x36x1 - x71x17x1 - x71x47x1 - x71x103x1 - x71x66x1 
= 0




x162x83x2 + x186x83x2 + x43x83x2 
- x83x0x2
- x83x84x2 - x83x182x2 - x83x57x2 - x83x36x2 - x83x17x2 - x83x103x2 - x83x64x2 - x83x148x2 - x83x22x2 
= 0
x162x83x3 + x188x83x3 
- x83x0x3
- x83x47x3 - x83x64x3 - x83x22x3 
= 0


x162x152x2 + x186x152x2 + x43x152x2 
- x152x0x2
- x152x48x2 - x152x84x2 - x152x182x2 - x152x57x2 - x152x36x2 - x152x17x2 - x152x103x2 - x152x64x2 - x152x148x2 - x152x22x2 
= 0
x162x152x3 + x188x152x3 
- x152x0x3
- x152x48x3 - x152x47x3 - x152x64x3 - x152x22x3 
= 0

x167x153x1 + x153x153x1 + x188x153x1 
- x153x0x1
- x153x163x1 - x153x36x1 - x153x17x1 - x153x47x1 - x153x103x1 - x153x66x1 
= 0




x162x154x2 + x186x154x2 + x43x154x2 
- x154x0x2
- x154x84x2 - x154x182x2 - x154x57x2 - x154x36x2 - x154x17x2 - x154x103x2 - x154x64x2 - x154x148x2 - x154x22x2 
= 0
x162x154x3 + x188x154x3 
- x154x0x3
- x154x47x3 - x154x64x3 - x154x22x3 
= 0

x167x159x1 + x188x159x1 
- x159x0x1
- x159x163x1 - x159x36x1 - x159x17x1 - x159x47x1 - x159x103x1 - x159x66x1 
= 0
x162x159x2 + x186x159x2 + x43x159x2 
- x159x0x2
- x159x48x2 - x159x84x2 - x159x182x2 - x159x57x2 - x159x36x2 - x159x17x2 - x159x103x2 - x159x64x2 - x159x148x2 - x159x22x2 
= 0


x167x51x1 + x188x51x1 
- x51x0x1
- x51x163x1 - x51x36x1 - x51x17x1 - x51x47x1 - x51x103x1 - x51x66x1 
= 0




x162x48x2 + x186x48x2 + x43x48x2 + x69x48x2 + x152x48x2 + x159x48x2 
- x48x0x2
- x48x84x2 - x48x182x2 - x48x57x2 - x48x36x2 - x48x17x2 - x48x103x2 - x48x64x2 - x48x148x2 - x48x22x2 
= 0
x162x48x3 + x188x48x3 + x11x48x3 + x69x48x3 + x152x48x3 
- x48x0x3
- x48x47x3 - x48x64x3 - x48x22x3 
= 0

x167x163x1 + x135x163x1 + x145x163x1 + x153x163x1 + x188x163x1 + x11x163x1 + x71x163x1 + x153x163x1 + x159x163x1 + x51x163x1 
- x163x0x1
- x163x36x1 - x163x17x1 - x163x47x1 - x163x103x1 - x163x66x1 
= 0




x162x84x2 + x135x84x2 + x116x84x2 + x186x84x2 + x43x84x2 + x19x84x2 + x69x84x2 + x83x84x2 + x152x84x2 + x154x84x2 + x159x84x2 + x48x84x2 
- x84x0x2
- x84x57x2 - x84x36x2 - x84x17x2 - x84x103x2 - x84x64x2 - x84x148x2 - x84x22x2 
= 0



x162x182x2 + x135x182x2 + x186x182x2 + x43x182x2 + x19x182x2 + x69x182x2 + x83x182x2 + x152x182x2 + x154x182x2 + x159x182x2 + x48x182x2 
- x182x0x2
- x182x57x2 - x182x36x2 - x182x17x2 - x182x103x2 - x182x64x2 - x182x148x2 - x182x22x2 
= 0



x162x57x2 + x135x57x2 + x116x57x2 + x186x57x2 + x43x57x2 + x19x57x2 + x69x57x2 + x83x57x2 + x152x57x2 + x154x57x2 + x159x57x2 + x48x57x2 + x84x57x2 + x182x57x2 
- x57x0x2
- x57x103x2 - x57x148x2 - x57x22x2 
= 0


x167x36x1 + x135x36x1 + x145x36x1 + x153x36x1 + x188x36x1 + x11x36x1 + x71x36x1 + x153x36x1 + x159x36x1 + x51x36x1 + x163x36x1 
- x36x0x1
- x36x17x1 - x36x47x1 - x36x103x1 - x36x66x1 
= 0
x162x36x2 + x135x36x2 + x116x36x2 + x186x36x2 + x43x36x2 + x19x36x2 + x69x36x2 + x83x36x2 + x152x36x2 + x154x36x2 + x159x36x2 + x48x36x2 + x84x36x2 + x182x36x2 
- x36x0x2
- x36x17x2 - x36x103x2 - x36x64x2 - x36x148x2 - x36x22x2 
= 0


x167x17x1 + x135x17x1 + x145x17x1 + x153x17x1 + x188x17x1 + x11x17x1 + x71x17x1 + x153x17x1 + x159x17x1 + x51x17x1 + x163x17x1 + x36x17x1 
- x17x0x1
- x17x103x1 - x17x66x1 
= 0
x162x17x2 + x135x17x2 + x116x17x2 + x186x17x2 + x43x17x2 + x19x17x2 + x69x17x2 + x83x17x2 + x152x17x2 + x154x17x2 + x159x17x2 + x48x17x2 + x84x17x2 + x182x17x2 + x36x17x2 
- x17x0x2
- x17x103x2 - x17x148x2 - x17x22x2 
= 0


x167x47x1 + x135x47x1 + x145x47x1 + x153x47x1 + x188x47x1 + x11x47x1 + x71x47x1 + x153x47x1 + x159x47x1 + x51x47x1 + x163x47x1 + x36x47x1 
- x47x0x1

= 0

x162x47x3 + x145x47x3 + x58x47x3 + x116x47x3 + x188x47x3 + x11x47x3 + x69x47x3 + x83x47x3 + x152x47x3 + x154x47x3 + x48x47x3 
- x47x0x3
- x47x22x3 
= 0

x167x103x1 + x135x103x1 + x145x103x1 + x153x103x1 + x188x103x1 + x11x103x1 + x71x103x1 + x153x103x1 + x159x103x1 + x51x103x1 + x163x103x1 + x36x103x1 + x17x103x1 
- x103x0x1

= 0
x162x103x2 + x135x103x2 + x116x103x2 + x186x103x2 + x43x103x2 + x19x103x2 + x69x103x2 + x83x103x2 + x152x103x2 + x154x103x2 + x159x103x2 + x48x103x2 + x84x103x2 + x182x103x2 + x57x103x2 + x36x103x2 + x17x103x2 
- x103x0x2
- x103x22x2 
= 0


x167x66x1 + x135x66x1 + x145x66x1 + x153x66x1 + x188x66x1 + x11x66x1 + x71x66x1 + x153x66x1 + x159x66x1 + x51x66x1 + x163x66x1 + x36x66x1 + x17x66x1 
- x66x0x1

= 0




x162x64x2 + x135x64x2 + x116x64x2 + x186x64x2 + x43x64x2 + x19x64x2 + x69x64x2 + x83x64x2 + x152x64x2 + x154x64x2 + x159x64x2 + x48x64x2 + x84x64x2 + x182x64x2 + x36x64x2 
- x64x0x2
- x64x148x2 
= 0
x162x64x3 + x145x64x3 + x58x64x3 + x116x64x3 + x188x64x3 + x11x64x3 + x69x64x3 + x83x64x3 + x152x64x3 + x154x64x3 + x48x64x3 
- x64x0x3

= 0


x162x148x2 + x135x148x2 + x116x148x2 + x186x148x2 + x43x148x2 + x19x148x2 + x69x148x2 + x83x148x2 + x152x148x2 + x154x148x2 + x159x148x2 + x48x148x2 + x84x148x2 + x182x148x2 + x57x148x2 + x36x148x2 + x17x148x2 + x64x148x2 
- x148x0x2

= 0



x162x22x2 + x135x22x2 + x116x22x2 + x186x22x2 + x43x22x2 + x19x22x2 + x69x22x2 + x83x22x2 + x152x22x2 + x154x22x2 + x159x22x2 + x48x22x2 + x84x22x2 + x182x22x2 + x57x22x2 + x36x22x2 + x17x22x2 + x103x22x2 
- x22x0x2

= 0
x162x22x3 + x145x22x3 + x58x22x3 + x116x22x3 + x188x22x3 + x11x22x3 + x69x22x3 + x83x22x3 + x152x22x3 + x154x22x3 + x48x22x3 + x47x22x3 
- x22x0x3

= 0

1y11 - x167x11x1 - x188x11x1 = 0
1y11 - x162x11x3 - x188x11x3 = 0
2y19 - x162x19x2 - x186x19x2 - x43x19x2 = 0
1y69 - x162x69x2 - x186x69x2 - x43x69x2 = 0
1y69 - x162x69x3 - x188x69x3 = 0
2y71 - x167x71x1 - x188x71x1 = 0
1y83 - x162x83x2 - x186x83x2 - x43x83x2 = 0
1y83 - x162x83x3 - x188x83x3 = 0
1y152 - x162x152x2 - x186x152x2 - x43x152x2 = 0
1y152 - x162x152x3 - x188x152x3 = 0
2y153 - x167x153x1 - x153x153x1 - x188x153x1 = 0
1y154 - x162x154x2 - x186x154x2 - x43x154x2 = 0
1y154 - x162x154x3 - x188x154x3 = 0
1y159 - x167x159x1 - x188x159x1 = 0
1y159 - x162x159x2 - x186x159x2 - x43x159x2 = 0
2y51 - x167x51x1 - x188x51x1 = 0
1y48 - x162x48x2 - x186x48x2 - x43x48x2 - x69x48x2 - x152x48x2 - x159x48x2 = 0
1y48 - x162x48x3 - x188x48x3 - x11x48x3 - x69x48x3 - x152x48x3 = 0
2y163 - x167x163x1 - x135x163x1 - x145x163x1 - x153x163x1 - x188x163x1 - x11x163x1 - x71x163x1 - x153x163x1 - x159x163x1 - x51x163x1 = 0
2y84 - x162x84x2 - x135x84x2 - x116x84x2 - x186x84x2 - x43x84x2 - x19x84x2 - x69x84x2 - x83x84x2 - x152x84x2 - x154x84x2 - x159x84x2 - x48x84x2 = 0
2y182 - x162x182x2 - x135x182x2 - x186x182x2 - x43x182x2 - x19x182x2 - x69x182x2 - x83x182x2 - x152x182x2 - x154x182x2 - x159x182x2 - x48x182x2 = 0
2y57 - x162x57x2 - x135x57x2 - x116x57x2 - x186x57x2 - x43x57x2 - x19x57x2 - x69x57x2 - x83x57x2 - x152x57x2 - x154x57x2 - x159x57x2 - x48x57x2 - x84x57x2 - x182x57x2 = 0
1y36 - x167x36x1 - x135x36x1 - x145x36x1 - x153x36x1 - x188x36x1 - x11x36x1 - x71x36x1 - x153x36x1 - x159x36x1 - x51x36x1 - x163x36x1 = 0
1y36 - x162x36x2 - x135x36x2 - x116x36x2 - x186x36x2 - x43x36x2 - x19x36x2 - x69x36x2 - x83x36x2 - x152x36x2 - x154x36x2 - x159x36x2 - x48x36x2 - x84x36x2 - x182x36x2 = 0
1y17 - x167x17x1 - x135x17x1 - x145x17x1 - x153x17x1 - x188x17x1 - x11x17x1 - x71x17x1 - x153x17x1 - x159x17x1 - x51x17x1 - x163x17x1 - x36x17x1 = 0
1y17 - x162x17x2 - x135x17x2 - x116x17x2 - x186x17x2 - x43x17x2 - x19x17x2 - x69x17x2 - x83x17x2 - x152x17x2 - x154x17x2 - x159x17x2 - x48x17x2 - x84x17x2 - x182x17x2 - x36x17x2 = 0
1y47 - x167x47x1 - x135x47x1 - x145x47x1 - x153x47x1 - x188x47x1 - x11x47x1 - x71x47x1 - x153x47x1 - x159x47x1 - x51x47x1 - x163x47x1 - x36x47x1 = 0
1y47 - x162x47x3 - x145x47x3 - x58x47x3 - x116x47x3 - x188x47x3 - x11x47x3 - x69x47x3 - x83x47x3 - x152x47x3 - x154x47x3 - x48x47x3 = 0
1y103 - x167x103x1 - x135x103x1 - x145x103x1 - x153x103x1 - x188x103x1 - x11x103x1 - x71x103x1 - x153x103x1 - x159x103x1 - x51x103x1 - x163x103x1 - x36x103x1 - x17x103x1 = 0
1y103 - x162x103x2 - x135x103x2 - x116x103x2 - x186x103x2 - x43x103x2 - x19x103x2 - x69x103x2 - x83x103x2 - x152x103x2 - x154x103x2 - x159x103x2 - x48x103x2 - x84x103x2 - x182x103x2 - x57x103x2 - x36x103x2 - x17x103x2 = 0
2y66 - x167x66x1 - x135x66x1 - x145x66x1 - x153x66x1 - x188x66x1 - x11x66x1 - x71x66x1 - x153x66x1 - x159x66x1 - x51x66x1 - x163x66x1 - x36x66x1 - x17x66x1 = 0
1y64 - x162x64x2 - x135x64x2 - x116x64x2 - x186x64x2 - x43x64x2 - x19x64x2 - x69x64x2 - x83x64x2 - x152x64x2 - x154x64x2 - x159x64x2 - x48x64x2 - x84x64x2 - x182x64x2 - x36x64x2 = 0
1y64 - x162x64x3 - x145x64x3 - x58x64x3 - x116x64x3 - x188x64x3 - x11x64x3 - x69x64x3 - x83x64x3 - x152x64x3 - x154x64x3 - x48x64x3 = 0
2y148 - x162x148x2 - x135x148x2 - x116x148x2 - x186x148x2 - x43x148x2 - x19x148x2 - x69x148x2 - x83x148x2 - x152x148x2 - x154x148x2 - x159x148x2 - x48x148x2 - x84x148x2 - x182x148x2 - x57x148x2 - x36x148x2 - x17x148x2 - x64x148x2 = 0
1y22 - x162x22x2 - x135x22x2 - x116x22x2 - x186x22x2 - x43x22x2 - x19x22x2 - x69x22x2 - x83x22x2 - x152x22x2 - x154x22x2 - x159x22x2 - x48x22x2 - x84x22x2 - x182x22x2 - x57x22x2 - x36x22x2 - x17x22x2 - x103x22x2 = 0
1y22 - x162x22x3 - x145x22x3 - x58x22x3 - x116x22x3 - x188x22x3 - x11x22x3 - x69x22x3 - x83x22x3 - x152x22x3 - x154x22x3 - x48x22x3 - x47x22x3 = 0

s167 - s11 + 6.424518z167z11z1 <= 4.60
s167 - s71 + 6.419936z167z71z1 <= 4.60
s167 - s153 + 6.276337z167z153z1 <= 4.60
s167 - s159 + 6.349660z167z159z1 <= 4.60
s167 - s51 + 6.407051z167z51z1 <= 4.60
s167 - s163 + 6.495965z167z163z1 <= 4.60
s167 - s36 + 6.462485z167z36z1 <= 4.60
s167 - s17 + 6.453834z167z17z1 <= 4.60
s167 - s47 + 6.516318z167z47z1 <= 4.60
s167 - s103 + 6.498213z167z103z1 <= 4.60
s167 - s66 + 6.441545z167z66z1 <= 4.60
s162 - s11 + 6.312656z162z11z3 <= 4.93
s162 - s19 + 6.192598z162z19z2 <= 4.93
s162 - s69 + 6.276804z162z69z2 <= 4.93
s162 - s69 + 6.276804z162z69z3 <= 4.93
s162 - s83 + 6.293567z162z83z2 <= 4.93
s162 - s83 + 6.293567z162z83z3 <= 4.93
s162 - s152 + 6.311736z162z152z2 <= 4.93
s162 - s152 + 6.311736z162z152z3 <= 4.93
s162 - s154 + 6.194343z162z154z2 <= 4.93
s162 - s154 + 6.194343z162z154z3 <= 4.93
s162 - s159 + 6.246626z162z159z2 <= 4.93
s162 - s48 + 6.345509z162z48z2 <= 4.93
s162 - s48 + 6.345509z162z48z3 <= 4.93
s162 - s84 + 6.308496z162z84z2 <= 4.93
s162 - s182 + 6.405051z162z182z2 <= 4.93
s162 - s57 + 6.432993z162z57z2 <= 4.93
s162 - s36 + 6.416283z162z36z2 <= 4.93
s162 - s17 + 6.423615z162z17z2 <= 4.93
s162 - s47 + 6.448660z162z47z3 <= 4.93
s162 - s103 + 6.459140z162z103z2 <= 4.93
s162 - s64 + 6.275217z162z64z2 <= 4.93
s162 - s64 + 6.275217z162z64z3 <= 4.93
s162 - s148 + 6.191597z162z148z2 <= 4.93
s162 - s22 + 6.483586z162z22z2 <= 4.93
s162 - s22 + 6.483586z162z22z3 <= 4.93
s135 - s163 + 7.220954z135z163z1 <= 5.71
s135 - s84 + 7.126116z135z84z2 <= 5.71
s135 - s182 + 7.231685z135z182z2 <= 5.71
s135 - s57 + 7.258102z135z57z2 <= 5.71
s135 - s36 + 7.234849z135z36z1 <= 5.71
s135 - s36 + 7.234849z135z36z2 <= 5.71
s135 - s17 + 7.239748z135z17z1 <= 5.71
s135 - s17 + 7.239748z135z17z2 <= 5.71
s135 - s47 + 7.270730z135z47z1 <= 5.71
s135 - s103 + 7.276958z135z103z1 <= 5.71
s135 - s103 + 7.276958z135z103z2 <= 5.71
s135 - s66 + 7.243899z135z66z1 <= 5.71
s135 - s64 + 7.082778z135z64z2 <= 5.71
s135 - s148 + 6.995752z135z148z2 <= 5.71
s135 - s22 + 7.293092z135z22z2 <= 5.71
s145 - s163 + 7.293023z145z163z1 <= 5.93
s145 - s36 + 7.460159z145z36z1 <= 5.93
s145 - s17 + 7.492151z145z17z1 <= 5.93
s145 - s47 + 7.438011z145z47z1 <= 5.93
s145 - s47 + 7.438011z145z47z3 <= 5.93
s145 - s103 + 7.501792z145z103z1 <= 5.93
s145 - s66 + 7.525661z145z66z1 <= 5.93
s145 - s64 + 7.450304z145z64z3 <= 5.93
s145 - s22 + 7.599848z145z22z3 <= 5.93
s58 - s47 + 7.303246z58z47z3 <= 5.80
s58 - s64 + 7.045126z58z64z3 <= 5.80
s58 - s22 + 7.243203z58z22z3 <= 5.80
s153 - s153 + 6.950000z153z153z1 <= 5.95
s153 - s163 + 7.169899z153z163z1 <= 5.95
s153 - s36 + 7.221457z153z36z1 <= 5.95
s153 - s17 + 7.243106z153z17z1 <= 5.95
s153 - s47 + 7.233470z153z47z1 <= 5.95
s153 - s103 + 7.266157z153z103z1 <= 5.95
s153 - s66 + 7.267840z153z66z1 <= 5.95
s116 - s84 + 7.400245z116z84z2 <= 5.97
s116 - s57 + 7.585106z116z57z2 <= 5.97
s116 - s36 + 7.501329z116z36z2 <= 5.97
s116 - s17 + 7.487473z116z17z2 <= 5.97
s116 - s47 + 7.563670z116z47z3 <= 5.97
s116 - s103 + 7.533363z116z103z2 <= 5.97
s116 - s64 + 7.301796z116z64z2 <= 5.97
s116 - s64 + 7.301796z116z64z3 <= 5.97
s116 - s148 + 7.223859z116z148z2 <= 5.97
s116 - s22 + 7.491579z116z22z2 <= 5.97
s116 - s22 + 7.491579z116z22z3 <= 5.97
s186 - s19 + 6.076734z186z19z2 <= 4.69
s186 - s69 + 6.181813z186z69z2 <= 4.69
s186 - s83 + 6.090462z186z83z2 <= 4.69
s186 - s152 + 6.179230z186z152z2 <= 4.69
s186 - s154 + 6.140030z186z154z2 <= 4.69
s186 - s159 + 6.194841z186z159z2 <= 4.69
s186 - s48 + 6.242005z186z48z2 <= 4.69
s186 - s84 + 6.355906z186z84z2 <= 4.69
s186 - s182 + 6.304442z186z182z2 <= 4.69
s186 - s57 + 6.364464z186z57z2 <= 4.69
s186 - s36 + 6.437294z186z36z2 <= 4.69
s186 - s17 + 6.464262z186z17z2 <= 4.69
s186 - s103 + 6.480907z186z103z2 <= 4.69
s186 - s64 + 6.384086z186z64z2 <= 4.69
s186 - s148 + 6.322871z186z148z2 <= 4.69
s186 - s22 + 6.561918z186z22z2 <= 4.69
s43 - s19 + 6.282544z43z19z2 <= 4.64
s43 - s69 + 6.371524z43z69z2 <= 4.64
s43 - s83 + 6.261768z43z83z2 <= 4.64
s43 - s152 + 6.356049z43z152z2 <= 4.64
s43 - s154 + 6.349353z43z154z2 <= 4.64
s43 - s159 + 6.396003z43z159z2 <= 4.64
s43 - s48 + 6.418328z43z48z2 <= 4.64
s43 - s84 + 6.569454z43z84z2 <= 4.64
s43 - s182 + 6.472506z43z182z2 <= 4.64
s43 - s57 + 6.537934z43z57z2 <= 4.64
s43 - s36 + 6.637538z43z36z2 <= 4.64
s43 - s17 + 6.669611z43z17z2 <= 4.64
s43 - s103 + 6.678812z43z103z2 <= 4.64
s43 - s64 + 6.612492z43z64z2 <= 4.64
s43 - s148 + 6.557694z43z148z2 <= 4.64
s43 - s22 + 6.775915z43z22z2 <= 4.64
s188 - s11 + 6.131804z188z11z1 <= 4.73
s188 - s11 + 6.131804z188z11z3 <= 4.73
s188 - s69 + 6.169482z188z69z3 <= 4.73
s188 - s71 + 6.159204z188z71z1 <= 4.73
s188 - s83 + 6.103593z188z83z3 <= 4.73
s188 - s152 + 6.178842z188z152z3 <= 4.73
s188 - s153 + 6.132732z188z153z1 <= 4.73
s188 - s154 + 6.110118z188z154z3 <= 4.73
s188 - s159 + 6.170282z188z159z1 <= 4.73
s188 - s51 + 6.220945z188z51z1 <= 4.73
s188 - s48 + 6.237660z188z48z3 <= 4.73
s188 - s163 + 6.288773z188z163z1 <= 4.73
s188 - s36 + 6.403872z188z36z1 <= 4.73
s188 - s17 + 6.425442z188z17z1 <= 4.73
s188 - s47 + 6.405965z188z47z1 <= 4.73
s188 - s47 + 6.405965z188z47z3 <= 4.73
s188 - s103 + 6.448490z188z103z1 <= 4.73
s188 - s66 + 6.447013z188z66z1 <= 4.73
s188 - s64 + 6.321769z188z64z3 <= 4.73
s188 - s22 + 6.512924z188z22z3 <= 4.73
s11 - s48 + 7.793998z11z48z3 <= 6.66
s11 - s163 + 7.834992z11z163z1 <= 6.66
s11 - s36 + 8.023012z11z36z1 <= 6.66
s11 - s17 + 8.060111z11z17z1 <= 6.66
s11 - s47 + 7.987753z11z47z1 <= 6.66
s11 - s47 + 7.987753z11z47z3 <= 6.66
s11 - s103 + 8.060888z11z103z1 <= 6.66
s11 - s66 + 8.099798z11z66z1 <= 6.66
s11 - s64 + 8.069335z11z64z3 <= 6.66
s11 - s22 + 8.175795z11z22z3 <= 6.66
s19 - s84 + 7.826977z19z84z2 <= 6.54
s19 - s182 + 7.789889z19z182z2 <= 6.54
s19 - s57 + 7.840000z19z57z2 <= 6.54
s19 - s36 + 7.900863z19z36z2 <= 6.54
s19 - s17 + 7.929472z19z17z2 <= 6.54
s19 - s103 + 7.944255z19z103z2 <= 6.54
s19 - s64 + 7.884158z19z64z2 <= 6.54
s19 - s148 + 7.854678z19z148z2 <= 6.54
s19 - s22 + 8.033379z19z22z2 <= 6.54
s69 - s48 + 7.912111z69z48z2 <= 6.84
s69 - s48 + 7.912111z69z48z3 <= 6.84
s69 - s84 + 8.057970z69z84z2 <= 6.84
s69 - s182 + 7.977437z69z182z2 <= 6.84
s69 - s57 + 8.026786z69z57z2 <= 6.84
s69 - s36 + 8.106667z69z36z2 <= 6.84
s69 - s17 + 8.141183z69z17z2 <= 6.84
s69 - s47 + 8.084586z69z47z3 <= 6.84
s69 - s103 + 8.147318z69z103z2 <= 6.84
s69 - s64 + 8.147318z69z64z2 <= 6.84
s69 - s64 + 8.147318z69z64z3 <= 6.84
s69 - s148 + 8.148833z69z148z2 <= 6.84
s69 - s22 + 8.254461z69z22z2 <= 6.84
s69 - s22 + 8.254461z69z22z3 <= 6.84
s71 - s163 + 7.924164z71z163z1 <= 6.79
s71 - s36 + 8.105876z71z36z1 <= 6.79
s71 - s17 + 8.143019z71z17z1 <= 6.79
s71 - s47 + 8.071978z71z47z1 <= 6.79
s71 - s103 + 8.143899z71z103z1 <= 6.79
s71 - s66 + 8.182938z71z66z1 <= 6.79
s83 - s84 + 7.873200z83z84z2 <= 6.54
s83 - s182 + 7.755406z83z182z2 <= 6.54
s83 - s57 + 7.818408z83z57z2 <= 6.54
s83 - s36 + 7.920935z83z36z2 <= 6.54
s83 - s17 + 7.956760z83z17z2 <= 6.54
s83 - s47 + 7.889793z83z47z3 <= 6.54
s83 - s103 + 7.960053z83z103z2 <= 6.54
s83 - s64 + 7.954193z83z64z2 <= 6.54
s83 - s64 + 7.954193z83z64z3 <= 6.54
s83 - s148 + 7.940722z83z148z2 <= 6.54
s83 - s22 + 8.070827z83z22z2 <= 6.54
s83 - s22 + 8.070827z83z22z3 <= 6.54
s152 - s48 + 7.943246z152z48z2 <= 6.88
s152 - s48 + 7.943246z152z48z3 <= 6.88
s152 - s84 + 8.133860z152z84z2 <= 6.88
s152 - s182 + 8.005787z152z182z2 <= 6.88
s152 - s57 + 8.065712z152z57z2 <= 6.88
s152 - s36 + 8.169444z152z36z2 <= 6.88
s152 - s17 + 8.206871z152z17z2 <= 6.88
s152 - s47 + 8.135517z152z47z3 <= 6.88
s152 - s103 + 8.207278z152z103z2 <= 6.88
s152 - s64 + 8.228967z152z64z2 <= 6.88
s152 - s64 + 8.228967z152z64z3 <= 6.88
s152 - s148 + 8.233334z152z148z2 <= 6.88
s152 - s22 + 8.323220z152z22z2 <= 6.88
s152 - s22 + 8.323220z152z22z3 <= 6.88
s153 - s163 + 8.169899z153z163z1 <= 6.95
s153 - s36 + 8.221457z153z36z1 <= 6.95
s153 - s17 + 8.243106z153z17z1 <= 6.95
s153 - s47 + 8.233471z153z47z1 <= 6.95
s153 - s103 + 8.266157z153z103z1 <= 6.95
s153 - s66 + 8.267839z153z66z1 <= 6.95
s154 - s84 + 7.980101z154z84z2 <= 6.76
s154 - s182 + 7.974994z154z182z2 <= 6.76
s154 - s57 + 8.014733z154z57z2 <= 6.76
s154 - s36 + 8.057620z154z36z2 <= 6.76
s154 - s17 + 8.084414z154z17z2 <= 6.76
s154 - s47 + 8.056124z154z47z3 <= 6.76
s154 - s103 + 8.101630z154z103z2 <= 6.76
s154 - s64 + 8.040318z154z64z2 <= 6.76
s154 - s64 + 8.040318z154z64z3 <= 6.76
s154 - s148 + 8.019316z154z148z2 <= 6.76
s154 - s22 + 8.186666z154z22z2 <= 6.76
s154 - s22 + 8.186666z154z22z3 <= 6.76
s159 - s48 + 7.990885z159z48z2 <= 6.89
s159 - s163 + 8.037573z159z163z1 <= 6.89
s159 - s84 + 8.069506z159z84z2 <= 6.89
s159 - s182 + 8.048465z159z182z2 <= 6.89
s159 - s57 + 8.083793z159z57z2 <= 6.89
s159 - s36 + 8.133310z159z36z1 <= 6.89
s159 - s36 + 8.133310z159z36z2 <= 6.89
s159 - s17 + 8.163658z159z17z1 <= 6.89
s159 - s17 + 8.163658z159z17z2 <= 6.89
s159 - s47 + 8.125702z159z47z1 <= 6.89
s159 - s103 + 8.176356z159z103z1 <= 6.89
s159 - s103 + 8.176356z159z103z2 <= 6.89
s159 - s66 + 8.197318z159z66z1 <= 6.89
s159 - s64 + 8.151363z159z64z2 <= 6.89
s159 - s148 + 8.150768z159z148z2 <= 6.89
s159 - s22 + 8.272099z159z22z2 <= 6.89
s51 - s163 + 8.128944z51z163z1 <= 7.04
s51 - s36 + 8.253750z51z36z1 <= 7.04
s51 - s17 + 8.289888z51z17z1 <= 7.04
s51 - s47 + 8.229736z51z47z1 <= 7.04
s51 - s103 + 8.293421z51z103z1 <= 7.04
s51 - s66 + 8.329444z51z66z1 <= 7.04
s48 - s84 + 8.357051z48z84z2 <= 7.14
s48 - s182 + 8.205997z48z182z2 <= 7.14
s48 - s57 + 8.262565z48z57z2 <= 7.14
s48 - s36 + 8.374474z48z36z2 <= 7.14
s48 - s17 + 8.414064z48z17z2 <= 7.14
s48 - s47 + 8.333793z48z47z3 <= 7.14
s48 - s103 + 8.409650z48z103z2 <= 7.14
s48 - s64 + 8.464003z48z64z2 <= 7.14
s48 - s64 + 8.464003z48z64z3 <= 7.14
s48 - s148 + 8.484158z48z148z2 <= 7.14
s48 - s22 + 8.532485z48z22z2 <= 7.14
s48 - s22 + 8.532485z48z22z3 <= 7.14
s163 - s36 + 8.637665z163z36z1 <= 7.42
s163 - s17 + 8.679658z163z17z1 <= 7.42
s163 - s47 + 8.582207z163z47z1 <= 7.42
s163 - s103 + 8.666667z163z103z1 <= 7.42
s163 - s66 + 8.725286z163z66z1 <= 7.42
s84 - s57 + 8.678885z84z57z2 <= 7.48
s84 - s36 + 8.589341z84z36z2 <= 7.48
s84 - s17 + 8.596619z84z17z2 <= 7.48
s84 - s103 + 8.630850z84z103z2 <= 7.48
s84 - s64 + 8.598134z84z64z2 <= 7.48
s84 - s148 + 8.656509z84z148z2 <= 7.48
s84 - s22 + 8.686774z84z22z2 <= 7.48
s182 - s57 + 8.556666z182z57z2 <= 7.49
s182 - s36 + 8.699231z182z36z2 <= 7.49
s182 - s17 + 8.741572z182z17z2 <= 7.49
s182 - s103 + 8.726455z182z103z2 <= 7.49
s182 - s64 + 8.829934z182z64z2 <= 7.49
s182 - s148 + 8.865293z182z148z2 <= 7.49
s182 - s22 + 8.860465z182z22z2 <= 7.49
s57 - s103 + 8.876131z57z103z2 <= 7.70
s57 - s148 + 9.066909z57z148z2 <= 7.70
s57 - s22 + 9.014678z57z22z2 <= 7.70
s36 - s17 + 8.752687z36z17z1 <= 7.71
s36 - s17 + 8.752687z36z17z2 <= 7.71
s36 - s47 + 8.790554z36z47z1 <= 7.71
s36 - s103 + 8.754722z36z103z1 <= 7.71
s36 - s103 + 8.754722z36z103z2 <= 7.71
s36 - s66 + 8.799691z36z66z1 <= 7.71
s36 - s64 + 8.912759z36z64z2 <= 7.71
s36 - s148 + 8.988567z36z148z2 <= 7.71
s36 - s22 + 8.871245z36z22z2 <= 7.71
s17 - s103 + 8.837140z17z103z1 <= 7.79
s17 - s103 + 8.837140z17z103z2 <= 7.79
s17 - s66 + 8.837140z17z66z1 <= 7.79
s17 - s148 + 9.058742z17z148z2 <= 7.79
s17 - s22 + 8.909257z17z22z2 <= 7.79
s47 - s22 + 9.031421z47z22z3 <= 7.80
s103 - s22 + 9.021421z103z22z2 <= 7.88
s64 - s148 + 9.039691z64z148z2 <= 7.95

x167x11x1 - 1z167z11z1 <= 0
x167x71x1 - 2z167z71z1 <= 0
x167x153x1 - 2z167z153z1 <= 0
x167x159x1 - 1z167z159z1 <= 0
x167x51x1 - 2z167z51z1 <= 0
x167x163x1 - 2z167z163z1 <= 0
x167x36x1 - 1z167z36z1 <= 0
x167x17x1 - 1z167z17z1 <= 0
x167x47x1 - 1z167z47z1 <= 0
x167x103x1 - 1z167z103z1 <= 0
x167x66x1 - 2z167z66z1 <= 0
x162x11x3 - 1z162z11z3 <= 0
x162x19x2 - 2z162z19z2 <= 0
x162x69x2 - 1z162z69z2 <= 0
x162x69x3 - 1z162z69z3 <= 0
x162x83x2 - 1z162z83z2 <= 0
x162x83x3 - 1z162z83z3 <= 0
x162x152x2 - 1z162z152z2 <= 0
x162x152x3 - 1z162z152z3 <= 0
x162x154x2 - 1z162z154z2 <= 0
x162x154x3 - 1z162z154z3 <= 0
x162x159x2 - 1z162z159z2 <= 0
x162x48x2 - 1z162z48z2 <= 0
x162x48x3 - 1z162z48z3 <= 0
x162x84x2 - 2z162z84z2 <= 0
x162x182x2 - 2z162z182z2 <= 0
x162x57x2 - 2z162z57z2 <= 0
x162x36x2 - 1z162z36z2 <= 0
x162x17x2 - 1z162z17z2 <= 0
x162x47x3 - 1z162z47z3 <= 0
x162x103x2 - 1z162z103z2 <= 0
x162x64x2 - 1z162z64z2 <= 0
x162x64x3 - 1z162z64z3 <= 0
x162x148x2 - 2z162z148z2 <= 0
x162x22x2 - 1z162z22z2 <= 0
x162x22x3 - 1z162z22z3 <= 0
x135x163x1 - 2z135z163z1 <= 0
x135x84x2 - 2z135z84z2 <= 0
x135x182x2 - 2z135z182z2 <= 0
x135x57x2 - 2z135z57z2 <= 0
x135x36x1 - 1z135z36z1 <= 0
x135x36x2 - 1z135z36z2 <= 0
x135x17x1 - 1z135z17z1 <= 0
x135x17x2 - 1z135z17z2 <= 0
x135x47x1 - 1z135z47z1 <= 0
x135x103x1 - 1z135z103z1 <= 0
x135x103x2 - 1z135z103z2 <= 0
x135x66x1 - 2z135z66z1 <= 0
x135x64x2 - 1z135z64z2 <= 0
x135x148x2 - 2z135z148z2 <= 0
x135x22x2 - 1z135z22z2 <= 0
x145x163x1 - 2z145z163z1 <= 0
x145x36x1 - 1z145z36z1 <= 0
x145x17x1 - 1z145z17z1 <= 0
x145x47x1 - 1z145z47z1 <= 0
x145x47x3 - 1z145z47z3 <= 0
x145x103x1 - 1z145z103z1 <= 0
x145x66x1 - 2z145z66z1 <= 0
x145x64x3 - 1z145z64z3 <= 0
x145x22x3 - 1z145z22z3 <= 0
x58x47x3 - 1z58z47z3 <= 0
x58x64x3 - 1z58z64z3 <= 0
x58x22x3 - 1z58z22z3 <= 0
x153x153x1 - 2z153z153z1 <= 0
x153x163x1 - 2z153z163z1 <= 0
x153x36x1 - 1z153z36z1 <= 0
x153x17x1 - 1z153z17z1 <= 0
x153x47x1 - 1z153z47z1 <= 0
x153x103x1 - 1z153z103z1 <= 0
x153x66x1 - 2z153z66z1 <= 0
x116x84x2 - 2z116z84z2 <= 0
x116x57x2 - 2z116z57z2 <= 0
x116x36x2 - 1z116z36z2 <= 0
x116x17x2 - 1z116z17z2 <= 0
x116x47x3 - 1z116z47z3 <= 0
x116x103x2 - 1z116z103z2 <= 0
x116x64x2 - 1z116z64z2 <= 0
x116x64x3 - 1z116z64z3 <= 0
x116x148x2 - 2z116z148z2 <= 0
x116x22x2 - 1z116z22z2 <= 0
x116x22x3 - 1z116z22z3 <= 0
x186x19x2 - 2z186z19z2 <= 0
x186x69x2 - 1z186z69z2 <= 0
x186x83x2 - 1z186z83z2 <= 0
x186x152x2 - 1z186z152z2 <= 0
x186x154x2 - 1z186z154z2 <= 0
x186x159x2 - 1z186z159z2 <= 0
x186x48x2 - 1z186z48z2 <= 0
x186x84x2 - 2z186z84z2 <= 0
x186x182x2 - 2z186z182z2 <= 0
x186x57x2 - 2z186z57z2 <= 0
x186x36x2 - 1z186z36z2 <= 0
x186x17x2 - 1z186z17z2 <= 0
x186x103x2 - 1z186z103z2 <= 0
x186x64x2 - 1z186z64z2 <= 0
x186x148x2 - 2z186z148z2 <= 0
x186x22x2 - 1z186z22z2 <= 0
x43x19x2 - 2z43z19z2 <= 0
x43x69x2 - 1z43z69z2 <= 0
x43x83x2 - 1z43z83z2 <= 0
x43x152x2 - 1z43z152z2 <= 0
x43x154x2 - 1z43z154z2 <= 0
x43x159x2 - 1z43z159z2 <= 0
x43x48x2 - 1z43z48z2 <= 0
x43x84x2 - 2z43z84z2 <= 0
x43x182x2 - 2z43z182z2 <= 0
x43x57x2 - 2z43z57z2 <= 0
x43x36x2 - 1z43z36z2 <= 0
x43x17x2 - 1z43z17z2 <= 0
x43x103x2 - 1z43z103z2 <= 0
x43x64x2 - 1z43z64z2 <= 0
x43x148x2 - 2z43z148z2 <= 0
x43x22x2 - 1z43z22z2 <= 0
x188x11x1 - 1z188z11z1 <= 0
x188x11x3 - 1z188z11z3 <= 0
x188x69x3 - 1z188z69z3 <= 0
x188x71x1 - 2z188z71z1 <= 0
x188x83x3 - 1z188z83z3 <= 0
x188x152x3 - 1z188z152z3 <= 0
x188x153x1 - 2z188z153z1 <= 0
x188x154x3 - 1z188z154z3 <= 0
x188x159x1 - 1z188z159z1 <= 0
x188x51x1 - 2z188z51z1 <= 0
x188x48x3 - 1z188z48z3 <= 0
x188x163x1 - 2z188z163z1 <= 0
x188x36x1 - 1z188z36z1 <= 0
x188x17x1 - 1z188z17z1 <= 0
x188x47x1 - 1z188z47z1 <= 0
x188x47x3 - 1z188z47z3 <= 0
x188x103x1 - 1z188z103z1 <= 0
x188x66x1 - 2z188z66z1 <= 0
x188x64x3 - 1z188z64z3 <= 0
x188x22x3 - 1z188z22z3 <= 0
x11x48x3 - 1z11z48z3 <= 0
x11x163x1 - 2z11z163z1 <= 0
x11x36x1 - 1z11z36z1 <= 0
x11x17x1 - 1z11z17z1 <= 0
x11x47x1 - 1z11z47z1 <= 0
x11x47x3 - 1z11z47z3 <= 0
x11x103x1 - 1z11z103z1 <= 0
x11x66x1 - 2z11z66z1 <= 0
x11x64x3 - 1z11z64z3 <= 0
x11x22x3 - 1z11z22z3 <= 0
x11x0x1 <= 1
x11x0x3 <= 1
x19x84x2 - 2z19z84z2 <= 0
x19x182x2 - 2z19z182z2 <= 0
x19x57x2 - 2z19z57z2 <= 0
x19x36x2 - 1z19z36z2 <= 0
x19x17x2 - 1z19z17z2 <= 0
x19x103x2 - 1z19z103z2 <= 0
x19x64x2 - 1z19z64z2 <= 0
x19x148x2 - 2z19z148z2 <= 0
x19x22x2 - 1z19z22z2 <= 0
x19x0x2 <= 2
x69x48x2 - 1z69z48z2 <= 0
x69x48x3 - 1z69z48z3 <= 0
x69x84x2 - 2z69z84z2 <= 0
x69x182x2 - 2z69z182z2 <= 0
x69x57x2 - 2z69z57z2 <= 0
x69x36x2 - 1z69z36z2 <= 0
x69x17x2 - 1z69z17z2 <= 0
x69x47x3 - 1z69z47z3 <= 0
x69x103x2 - 1z69z103z2 <= 0
x69x64x2 - 1z69z64z2 <= 0
x69x64x3 - 1z69z64z3 <= 0
x69x148x2 - 2z69z148z2 <= 0
x69x22x2 - 1z69z22z2 <= 0
x69x22x3 - 1z69z22z3 <= 0
x69x0x2 <= 1
x69x0x3 <= 1
x71x163x1 - 2z71z163z1 <= 0
x71x36x1 - 1z71z36z1 <= 0
x71x17x1 - 1z71z17z1 <= 0
x71x47x1 - 1z71z47z1 <= 0
x71x103x1 - 1z71z103z1 <= 0
x71x66x1 - 2z71z66z1 <= 0
x71x0x1 <= 2
x83x84x2 - 2z83z84z2 <= 0
x83x182x2 - 2z83z182z2 <= 0
x83x57x2 - 2z83z57z2 <= 0
x83x36x2 - 1z83z36z2 <= 0
x83x17x2 - 1z83z17z2 <= 0
x83x47x3 - 1z83z47z3 <= 0
x83x103x2 - 1z83z103z2 <= 0
x83x64x2 - 1z83z64z2 <= 0
x83x64x3 - 1z83z64z3 <= 0
x83x148x2 - 2z83z148z2 <= 0
x83x22x2 - 1z83z22z2 <= 0
x83x22x3 - 1z83z22z3 <= 0
x83x0x2 <= 1
x83x0x3 <= 1
x152x48x2 - 1z152z48z2 <= 0
x152x48x3 - 1z152z48z3 <= 0
x152x84x2 - 2z152z84z2 <= 0
x152x182x2 - 2z152z182z2 <= 0
x152x57x2 - 2z152z57z2 <= 0
x152x36x2 - 1z152z36z2 <= 0
x152x17x2 - 1z152z17z2 <= 0
x152x47x3 - 1z152z47z3 <= 0
x152x103x2 - 1z152z103z2 <= 0
x152x64x2 - 1z152z64z2 <= 0
x152x64x3 - 1z152z64z3 <= 0
x152x148x2 - 2z152z148z2 <= 0
x152x22x2 - 1z152z22z2 <= 0
x152x22x3 - 1z152z22z3 <= 0
x152x0x2 <= 1
x152x0x3 <= 1
x153x163x1 - 2z153z163z1 <= 0
x153x36x1 - 1z153z36z1 <= 0
x153x17x1 - 1z153z17z1 <= 0
x153x47x1 - 1z153z47z1 <= 0
x153x103x1 - 1z153z103z1 <= 0
x153x66x1 - 2z153z66z1 <= 0
x153x0x1 <= 2
x154x84x2 - 2z154z84z2 <= 0
x154x182x2 - 2z154z182z2 <= 0
x154x57x2 - 2z154z57z2 <= 0
x154x36x2 - 1z154z36z2 <= 0
x154x17x2 - 1z154z17z2 <= 0
x154x47x3 - 1z154z47z3 <= 0
x154x103x2 - 1z154z103z2 <= 0
x154x64x2 - 1z154z64z2 <= 0
x154x64x3 - 1z154z64z3 <= 0
x154x148x2 - 2z154z148z2 <= 0
x154x22x2 - 1z154z22z2 <= 0
x154x22x3 - 1z154z22z3 <= 0
x154x0x2 <= 1
x154x0x3 <= 1
x159x48x2 - 1z159z48z2 <= 0
x159x163x1 - 2z159z163z1 <= 0
x159x84x2 - 2z159z84z2 <= 0
x159x182x2 - 2z159z182z2 <= 0
x159x57x2 - 2z159z57z2 <= 0
x159x36x1 - 1z159z36z1 <= 0
x159x36x2 - 1z159z36z2 <= 0
x159x17x1 - 1z159z17z1 <= 0
x159x17x2 - 1z159z17z2 <= 0
x159x47x1 - 1z159z47z1 <= 0
x159x103x1 - 1z159z103z1 <= 0
x159x103x2 - 1z159z103z2 <= 0
x159x66x1 - 2z159z66z1 <= 0
x159x64x2 - 1z159z64z2 <= 0
x159x148x2 - 2z159z148z2 <= 0
x159x22x2 - 1z159z22z2 <= 0
x159x0x1 <= 1
x159x0x2 <= 1
x51x163x1 - 2z51z163z1 <= 0
x51x36x1 - 1z51z36z1 <= 0
x51x17x1 - 1z51z17z1 <= 0
x51x47x1 - 1z51z47z1 <= 0
x51x103x1 - 1z51z103z1 <= 0
x51x66x1 - 2z51z66z1 <= 0
x51x0x1 <= 2
x48x84x2 - 2z48z84z2 <= 0
x48x182x2 - 2z48z182z2 <= 0
x48x57x2 - 2z48z57z2 <= 0
x48x36x2 - 1z48z36z2 <= 0
x48x17x2 - 1z48z17z2 <= 0
x48x47x3 - 1z48z47z3 <= 0
x48x103x2 - 1z48z103z2 <= 0
x48x64x2 - 1z48z64z2 <= 0
x48x64x3 - 1z48z64z3 <= 0
x48x148x2 - 2z48z148z2 <= 0
x48x22x2 - 1z48z22z2 <= 0
x48x22x3 - 1z48z22z3 <= 0
x48x0x2 <= 1
x48x0x3 <= 1
x163x36x1 - 1z163z36z1 <= 0
x163x17x1 - 1z163z17z1 <= 0
x163x47x1 - 1z163z47z1 <= 0
x163x103x1 - 1z163z103z1 <= 0
x163x66x1 - 2z163z66z1 <= 0
x163x0x1 <= 2
x84x57x2 - 2z84z57z2 <= 0
x84x36x2 - 1z84z36z2 <= 0
x84x17x2 - 1z84z17z2 <= 0
x84x103x2 - 1z84z103z2 <= 0
x84x64x2 - 1z84z64z2 <= 0
x84x148x2 - 2z84z148z2 <= 0
x84x22x2 - 1z84z22z2 <= 0
x84x0x2 <= 2
x182x57x2 - 2z182z57z2 <= 0
x182x36x2 - 1z182z36z2 <= 0
x182x17x2 - 1z182z17z2 <= 0
x182x103x2 - 1z182z103z2 <= 0
x182x64x2 - 1z182z64z2 <= 0
x182x148x2 - 2z182z148z2 <= 0
x182x22x2 - 1z182z22z2 <= 0
x182x0x2 <= 2
x57x103x2 - 1z57z103z2 <= 0
x57x148x2 - 2z57z148z2 <= 0
x57x22x2 - 1z57z22z2 <= 0
x57x0x2 <= 2
x36x17x1 - 1z36z17z1 <= 0
x36x17x2 - 1z36z17z2 <= 0
x36x47x1 - 1z36z47z1 <= 0
x36x103x1 - 1z36z103z1 <= 0
x36x103x2 - 1z36z103z2 <= 0
x36x66x1 - 2z36z66z1 <= 0
x36x64x2 - 1z36z64z2 <= 0
x36x148x2 - 2z36z148z2 <= 0
x36x22x2 - 1z36z22z2 <= 0
x36x0x1 <= 1
x36x0x2 <= 1
x17x103x1 - 1z17z103z1 <= 0
x17x103x2 - 1z17z103z2 <= 0
x17x66x1 - 2z17z66z1 <= 0
x17x148x2 - 2z17z148z2 <= 0
x17x22x2 - 1z17z22z2 <= 0
x17x0x1 <= 1
x17x0x2 <= 1
x47x22x3 - 1z47z22z3 <= 0
x47x0x1 <= 1
x47x0x3 <= 1
x103x22x2 - 1z103z22z2 <= 0
x103x0x1 <= 1
x103x0x2 <= 1
x66x0x1 <= 2
x64x148x2 - 2z64z148z2 <= 0
x64x0x2 <= 1
x64x0x3 <= 1
x148x0x2 <= 2
x22x0x2 <= 1
x22x0x3 <= 1

Bounds
s167 = 4.597744
s162 = 4.925932
s135 = 5.706539
s145 = 5.925328
s58 = 5.803557
s153 = 5.950000
s116 = 5.970000
s186 = 4.690240
s43 = 4.635740
s188 = 4.725410
6.000000 <= s11 <= 6.660000
6.000000 <= s19 <= 6.540000
6.000000 <= s69 <= 6.840000
6.000000 <= s71 <= 6.790000
6.000000 <= s83 <= 6.540000
6.000000 <= s152 <= 6.880000
6.000000 <= s153 <= 6.950000
6.000000 <= s154 <= 6.760000
6.000000 <= s159 <= 6.890000
6.040000 <= s51 <= 7.040000
6.140000 <= s48 <= 7.140000
6.420000 <= s163 <= 7.420000
6.480000 <= s84 <= 7.480000
6.490000 <= s182 <= 7.490000
6.700000 <= s57 <= 7.700000
6.710000 <= s36 <= 7.710000
6.790000 <= s17 <= 7.790000
6.800000 <= s47 <= 7.800000
6.880000 <= s103 <= 7.880000
6.890000 <= s66 <= 7.890000
6.950000 <= s64 <= 7.950000
7.100000 <= s148 <= 8.100000
7.150000 <= s22 <= 8.150000

General
x167x11x1 x167x71x1 x167x153x1 x167x159x1 x167x51x1 x167x163x1 x167x36x1 x167x17x1 x167x47x1 x167x103x1 x167x66x1 
x162x11x3 x162x19x2 x162x69x2 x162x69x3 x162x83x2 x162x83x3 x162x152x2 x162x152x3 x162x154x2 x162x154x3 x162x159x2 x162x48x2 x162x48x3 x162x84x2 x162x182x2 x162x57x2 x162x36x2 x162x17x2 x162x47x3 x162x103x2 x162x64x2 x162x64x3 x162x148x2 x162x22x2 x162x22x3 
x135x163x1 x135x84x2 x135x182x2 x135x57x2 x135x36x1 x135x36x2 x135x17x1 x135x17x2 x135x47x1 x135x103x1 x135x103x2 x135x66x1 x135x64x2 x135x148x2 x135x22x2 
x145x163x1 x145x36x1 x145x17x1 x145x47x1 x145x47x3 x145x103x1 x145x66x1 x145x64x3 x145x22x3 
x58x47x3 x58x64x3 x58x22x3 
x153x153x1 x153x163x1 x153x36x1 x153x17x1 x153x47x1 x153x103x1 x153x66x1 
x116x84x2 x116x57x2 x116x36x2 x116x17x2 x116x47x3 x116x103x2 x116x64x2 x116x64x3 x116x148x2 x116x22x2 x116x22x3 
x186x19x2 x186x69x2 x186x83x2 x186x152x2 x186x154x2 x186x159x2 x186x48x2 x186x84x2 x186x182x2 x186x57x2 x186x36x2 x186x17x2 x186x103x2 x186x64x2 x186x148x2 x186x22x2 
x43x19x2 x43x69x2 x43x83x2 x43x152x2 x43x154x2 x43x159x2 x43x48x2 x43x84x2 x43x182x2 x43x57x2 x43x36x2 x43x17x2 x43x103x2 x43x64x2 x43x148x2 x43x22x2 
x188x11x1 x188x11x3 x188x69x3 x188x71x1 x188x83x3 x188x152x3 x188x153x1 x188x154x3 x188x159x1 x188x51x1 x188x48x3 x188x163x1 x188x36x1 x188x17x1 x188x47x1 x188x47x3 x188x103x1 x188x66x1 x188x64x3 x188x22x3 
x11x48x3 x11x163x1 x11x36x1 x11x17x1 x11x47x1 x11x47x3 x11x103x1 x11x66x1 x11x64x3 x11x22x3 x11x0x1 x11x0x3 
x19x84x2 x19x182x2 x19x57x2 x19x36x2 x19x17x2 x19x103x2 x19x64x2 x19x148x2 x19x22x2 x19x0x2 
x69x48x2 x69x48x3 x69x84x2 x69x182x2 x69x57x2 x69x36x2 x69x17x2 x69x47x3 x69x103x2 x69x64x2 x69x64x3 x69x148x2 x69x22x2 x69x22x3 x69x0x2 x69x0x3 
x71x163x1 x71x36x1 x71x17x1 x71x47x1 x71x103x1 x71x66x1 x71x0x1 
x83x84x2 x83x182x2 x83x57x2 x83x36x2 x83x17x2 x83x47x3 x83x103x2 x83x64x2 x83x64x3 x83x148x2 x83x22x2 x83x22x3 x83x0x2 x83x0x3 
x152x48x2 x152x48x3 x152x84x2 x152x182x2 x152x57x2 x152x36x2 x152x17x2 x152x47x3 x152x103x2 x152x64x2 x152x64x3 x152x148x2 x152x22x2 x152x22x3 x152x0x2 x152x0x3 
x153x163x1 x153x36x1 x153x17x1 x153x47x1 x153x103x1 x153x66x1 x153x0x1 
x154x84x2 x154x182x2 x154x57x2 x154x36x2 x154x17x2 x154x47x3 x154x103x2 x154x64x2 x154x64x3 x154x148x2 x154x22x2 x154x22x3 x154x0x2 x154x0x3 
x159x48x2 x159x163x1 x159x84x2 x159x182x2 x159x57x2 x159x36x1 x159x36x2 x159x17x1 x159x17x2 x159x47x1 x159x103x1 x159x103x2 x159x66x1 x159x64x2 x159x148x2 x159x22x2 x159x0x1 x159x0x2 
x51x163x1 x51x36x1 x51x17x1 x51x47x1 x51x103x1 x51x66x1 x51x0x1 
x48x84x2 x48x182x2 x48x57x2 x48x36x2 x48x17x2 x48x47x3 x48x103x2 x48x64x2 x48x64x3 x48x148x2 x48x22x2 x48x22x3 x48x0x2 x48x0x3 
x163x36x1 x163x17x1 x163x47x1 x163x103x1 x163x66x1 x163x0x1 
x84x57x2 x84x36x2 x84x17x2 x84x103x2 x84x64x2 x84x148x2 x84x22x2 x84x0x2 
x182x57x2 x182x36x2 x182x17x2 x182x103x2 x182x64x2 x182x148x2 x182x22x2 x182x0x2 
x57x103x2 x57x148x2 x57x22x2 x57x0x2 
x36x17x1 x36x17x2 x36x47x1 x36x103x1 x36x103x2 x36x66x1 x36x64x2 x36x148x2 x36x22x2 x36x0x1 x36x0x2 
x17x103x1 x17x103x2 x17x66x1 x17x148x2 x17x22x2 x17x0x1 x17x0x2 
x47x22x3 x47x0x1 x47x0x3 
x103x22x2 x103x0x1 x103x0x2 
x66x0x1 
x64x148x2 x64x0x2 x64x0x3 
x148x0x2 
x22x0x2 x22x0x3 

Binaries
y11 y19 y69 y71 y83 y152 y153 y154 y159 y51 y48 y163 y84 y182 y57 y36 y17 y47 y103 y66 y64 y148 y22 
z167z11z1 z167z71z1 z167z153z1 z167z159z1 z167z51z1 z167z163z1 z167z36z1 z167z17z1 z167z47z1 z167z103z1 z167z66z1 
z162z11z3 z162z19z2 z162z69z2 z162z69z3 z162z83z2 z162z83z3 z162z152z2 z162z152z3 z162z154z2 z162z154z3 z162z159z2 z162z48z2 z162z48z3 z162z84z2 z162z182z2 z162z57z2 z162z36z2 z162z17z2 z162z47z3 z162z103z2 z162z64z2 z162z64z3 z162z148z2 z162z22z2 z162z22z3 
z135z163z1 z135z84z2 z135z182z2 z135z57z2 z135z36z1 z135z36z2 z135z17z1 z135z17z2 z135z47z1 z135z103z1 z135z103z2 z135z66z1 z135z64z2 z135z148z2 z135z22z2 
z145z163z1 z145z36z1 z145z17z1 z145z47z1 z145z47z3 z145z103z1 z145z66z1 z145z64z3 z145z22z3 
z58z47z3 z58z64z3 z58z22z3 
z153z153z1 z153z163z1 z153z36z1 z153z17z1 z153z47z1 z153z103z1 z153z66z1 
z116z84z2 z116z57z2 z116z36z2 z116z17z2 z116z47z3 z116z103z2 z116z64z2 z116z64z3 z116z148z2 z116z22z2 z116z22z3 
z186z19z2 z186z69z2 z186z83z2 z186z152z2 z186z154z2 z186z159z2 z186z48z2 z186z84z2 z186z182z2 z186z57z2 z186z36z2 z186z17z2 z186z103z2 z186z64z2 z186z148z2 z186z22z2 
z43z19z2 z43z69z2 z43z83z2 z43z152z2 z43z154z2 z43z159z2 z43z48z2 z43z84z2 z43z182z2 z43z57z2 z43z36z2 z43z17z2 z43z103z2 z43z64z2 z43z148z2 z43z22z2 
z188z11z1 z188z11z3 z188z69z3 z188z71z1 z188z83z3 z188z152z3 z188z153z1 z188z154z3 z188z159z1 z188z51z1 z188z48z3 z188z163z1 z188z36z1 z188z17z1 z188z47z1 z188z47z3 z188z103z1 z188z66z1 z188z64z3 z188z22z3 
z11z48z3 z11z163z1 z11z36z1 z11z17z1 z11z47z1 z11z47z3 z11z103z1 z11z66z1 z11z64z3 z11z22z3 
z19z84z2 z19z182z2 z19z57z2 z19z36z2 z19z17z2 z19z103z2 z19z64z2 z19z148z2 z19z22z2 
z69z48z2 z69z48z3 z69z84z2 z69z182z2 z69z57z2 z69z36z2 z69z17z2 z69z47z3 z69z103z2 z69z64z2 z69z64z3 z69z148z2 z69z22z2 z69z22z3 
z71z163z1 z71z36z1 z71z17z1 z71z47z1 z71z103z1 z71z66z1 
z83z84z2 z83z182z2 z83z57z2 z83z36z2 z83z17z2 z83z47z3 z83z103z2 z83z64z2 z83z64z3 z83z148z2 z83z22z2 z83z22z3 
z152z48z2 z152z48z3 z152z84z2 z152z182z2 z152z57z2 z152z36z2 z152z17z2 z152z47z3 z152z103z2 z152z64z2 z152z64z3 z152z148z2 z152z22z2 z152z22z3 
z153z163z1 z153z36z1 z153z17z1 z153z47z1 z153z103z1 z153z66z1 
z154z84z2 z154z182z2 z154z57z2 z154z36z2 z154z17z2 z154z47z3 z154z103z2 z154z64z2 z154z64z3 z154z148z2 z154z22z2 z154z22z3 
z159z48z2 z159z163z1 z159z84z2 z159z182z2 z159z57z2 z159z36z1 z159z36z2 z159z17z1 z159z17z2 z159z47z1 z159z103z1 z159z103z2 z159z66z1 z159z64z2 z159z148z2 z159z22z2 
z51z163z1 z51z36z1 z51z17z1 z51z47z1 z51z103z1 z51z66z1 
z48z84z2 z48z182z2 z48z57z2 z48z36z2 z48z17z2 z48z47z3 z48z103z2 z48z64z2 z48z64z3 z48z148z2 z48z22z2 z48z22z3 
z163z36z1 z163z17z1 z163z47z1 z163z103z1 z163z66z1 
z84z57z2 z84z36z2 z84z17z2 z84z103z2 z84z64z2 z84z148z2 z84z22z2 
z182z57z2 z182z36z2 z182z17z2 z182z103z2 z182z64z2 z182z148z2 z182z22z2 
z57z103z2 z57z148z2 z57z22z2 
z36z17z1 z36z17z2 z36z47z1 z36z103z1 z36z103z2 z36z66z1 z36z64z2 z36z148z2 z36z22z2 
z17z103z1 z17z103z2 z17z66z1 z17z148z2 z17z22z2 
z47z22z3 
z103z22z2 

z64z148z2 



End